\* Problem: Unknown *\

Maximize
 obj: + xp_0_0 + xp_0_1 + xp_0_2 + xp_0_3 + xp_0_4 + xp_0_5 + xp_0_6
 + xp_0_7 + xp_1_0 + xp_1_1 + xp_1_2 + xp_2_0 + xp_2_1 + xp_2_2 + xp_2_3
 + xp_2_4 + xp_3_0 + xp_3_1 + xp_3_2 + xp_3_3 + xp_4_0 + xp_5_0 + xp_5_1
 + xp_5_2 + xp_6_0 + xp_6_1 + xp_7_0 + xp_7_1 + xp_8_0 + xp_8_1 + xp_9_0
 + xp_10_0 + xp_10_1 + xp_11_0 + xp_11_1 + xp_11_2 + xp_11_3 + xp_12_0
 + xp_13_0 + xp_13_1 + xp_14_0 + xp_14_1 + xp_15_0 + xp_16_0 + xp_16_1
 + xp_17_0 + xp_17_1 + xp_17_2 + xp_17_3 + xp_17_4 + xp_17_5 + xp_18_0
 + xp_18_1 + xp_18_2 + xp_19_0 + xp_19_1 + xp_19_2 + xp_19_3 + xp_20_0
 + xp_20_1 + xp_20_2 + xp_20_3 + xp_21_0 + xp_21_1 + xp_21_2 + xp_21_3
 + xp_21_4 + xp_21_5 + xp_22_0 + xp_22_1 + xp_22_2 + xp_22_3 + xp_22_4
 + xp_22_5 + xp_23_0 + xp_23_1 + xp_23_2 + xp_23_3 + xp_23_4

Subject To
 r_1: 0 xp_0_0 <= 29.4574468085106
 r_2: + xp_23_4 + xp_22_2 + xp_17_5 + xp_5_2 + xp_2_3
 <= 28.8106343283582
 r_3: + xp_21_5 + xp_21_2 + xp_18_2 <= 30
 r_4: + xp_17_1 + xp_15_0 + xp_3_3 <= 30
 r_5: + xp_18_0 <= 28.0263157894737
 r_6: + xp_18_1 <= 30
 r_7: + xp_20_3 <= 29.4574468085106
 r_8: + xp_23_2 + xp_11_2 + xp_5_1 + xp_3_2 + xp_2_2 <= 28.8106343283582
 r_9: + xp_11_1 + xp_6_1 + xp_3_1 <= 30
 r_10: + xp_3_0 <= 30
 r_11: + xp_18_1 + xp_11_3 + xp_0_6 <= 28.0263157894737
 r_12: + xp_11_0 + xp_3_3 <= 30
 r_13: 0 xp_0_0 <= 30
 r_14: + xp_21_1 + xp_14_0 + xp_0_7 + xp_0_1 <= 28.8106343283582
 r_15: + xp_21_0 + xp_19_3 <= 29.4574468085106
 r_16: + xp_22_1 + xp_21_5 + xp_21_3 + xp_0_5 + xp_0_3 + xp_0_2
 <= 29.4574468085106
 r_17: + xp_0_0 <= 28.0263157894737
 r_18: + xp_21_2 + xp_4_0 <= 29.4574468085106
 r_19: + xp_19_0 <= 29.4574468085106
 r_20: + xp_21_4 + xp_19_2 + xp_19_1 + xp_14_1 + xp_0_6 + xp_0_4
 <= 29.4574468085106
 r_21: + xp_20_1 <= 28.8106343283582
 r_22: + xp_21_1 + xp_7_1 <= 28.8106343283582
 r_23: + xp_23_4 + xp_22_3 + xp_22_2 + xp_17_5 <= 28.8106343283582
 r_24: + xp_23_3 + xp_23_2 + xp_17_3 + xp_3_2 + xp_0_7
 <= 28.8106343283582
 r_25: 0 xp_0_0 <= 28.8106343283582
 r_26: + xp_0_4 + xp_0_1 <= 28.0263157894737
 r_27: + xp_11_2 <= 28.8106343283582
 r_28: + xp_19_2 + xp_10_1 <= 28.8106343283582
 r_29: + xp_20_2 <= 29.4574468085106
 r_30: + xp_2_0 <= 28.8106343283582
 r_31: + xp_18_2 + xp_6_1 + xp_3_1 + xp_2_4 <= 30
 r_32: + xp_2_1 <= 30
 r_33: + xp_11_1 + xp_2_3 <= 30
 r_34: + xp_19_3 + xp_2_2 <= 30
 r_35: 0 xp_0_0 <= 29.4574468085106
 r_36: + xp_9_0 <= 28.8106343283582
 r_37: + xp_21_3 + xp_13_1 + xp_8_1 + xp_0_3 <= 30
 r_38: + xp_23_4 + xp_1_1 <= 30
 r_39: + xp_21_5 + xp_17_5 + xp_17_2 + xp_0_5 <= 30
 r_40: + xp_0_2 <= 28.0263157894737
 r_41: + xp_12_0 + xp_2_4 <= 28.8106343283582
 r_42: + xp_21_3 <= 30
 r_43: + xp_22_5 + xp_16_0 <= 30
 r_44: + xp_23_3 + xp_23_2 + xp_23_1 + xp_16_1 + xp_1_2 <= 30
 r_45: + xp_17_4 + xp_17_3 + xp_3_2 + xp_3_1 <= 30
 r_46: + xp_18_2 + xp_0_7 + xp_0_3 <= 28.0263157894737
 r_47: + xp_22_4 + xp_16_1 + xp_13_1 <= 30
 r_48: + xp_13_0 <= 30
 r_49: 0 xp_0_0 <= 30
 r_50: 0 xp_0_0 <= 28.0263157894737
 r_51: + xp_8_1 + xp_1_1 <= 30
 r_52: + xp_8_0 + xp_1_2 <= 30
 r_53: + xp_1_0 <= 30
 r_54: + xp_0_5 <= 28.0263157894737
 r_55: + xp_21_5 <= 30
 r_56: 0 xp_0_0 <= 30
 r_57: + xp_22_1 <= 28.0263157894737
 r_58: + xp_23_3 + xp_22_3 + xp_17_3 + xp_5_0 <= 28.0263157894737
 r_59: + xp_22_0 + xp_17_2 <= 28.0263157894737
 r_60: + xp_23_1 + xp_22_5 + xp_17_4 + xp_6_0 <= 28.0263157894737
 r_61: + xp_23_0 + xp_22_4 <= 28.0263157894737
 r_62: + xp_17_0 <= 28.0263157894737
 r_63: + xp_23_4 + xp_22_2 + xp_17_5 + xp_17_1 + xp_11_3 + xp_5_2
 <= 28.0263157894737
 r_64: + xp_23_2 + xp_6_1 + xp_5_1 <= 28.0263157894737
 r_65: + xp_20_1 + xp_19_2 + xp_14_1 + xp_10_1 + xp_7_1 + xp_2_1
 + xp_0_4 <= 28.8106343283582
 r_66: + xp_21_4 + xp_20_2 + xp_7_0 <= 30
 r_67: + xp_20_3 + xp_19_1 + xp_10_0 + xp_0_6 <= 30
 r_68: + xp_20_0 <= 29.4574468085106

Bounds
 0 <= xp_0_0 <= 28.2546819710326
 0 <= xp_0_1 <= 11.5834089833677
 0 <= xp_0_2 <= 12.6454422552489
 0 <= xp_0_3 <= 2.74149510542602
 0 <= xp_0_4 <= 1.67946183354482
 0 <= xp_0_5 <= 2.74149510542602
 0 <= xp_0_6 <= 0.839730916772412
 0 <= xp_0_7 <= 2.74149510542602
 0 <= xp_1_0 <= 19.6432510695943
 0 <= xp_1_1 <= 13.0159059718353
 0 <= xp_1_2 <= 2.74149510542602
 0 <= xp_2_0 <= 23.4303085443081
 0 <= xp_2_1 <= 0.74917385044998
 0 <= xp_2_2 <= 2.74149510542602
 0 <= xp_2_3 <= 6.48736435767592
 0 <= xp_2_4 <= 1.49834770089996
 0 <= xp_3_0 <= 26.1800336180406
 0 <= xp_3_1 <= 5.25245788743677
 0 <= xp_3_2 <= 0.50219255640215
 0 <= xp_3_3 <= 0.50219255640215
 0 <= xp_4_0 <= 26.3446713651019
 0 <= xp_5_0 <= 10.5378685460408
 0 <= xp_5_1 <= 7.90340140953057
 0 <= xp_5_2 <= 7.90340140953057
 0 <= xp_6_0 <= 16.5971429600142
 0 <= xp_6_1 <= 7.11306126857751
 0 <= xp_7_0 <= 18.1778232419203
 0 <= xp_7_1 <= 4.54445581048008
 0 <= xp_8_0 <= 16.3336962463632
 0 <= xp_8_1 <= 4.08342406159079
 0 <= xp_9_0 <= 18.935232543667
 0 <= xp_10_0 <= 15.1481860349336
 0 <= xp_10_1 <= 3.7870465087334
 0 <= xp_11_0 <= 24.6734559488342
 0 <= xp_11_1 <= 10.9659804217041
 0 <= xp_11_2 <= 13.7074755271301
 0 <= xp_11_3 <= 5.48299021085204
 0 <= xp_12_0 <= 17.7826531714438
 0 <= xp_13_0 <= 15.5598215250133
 0 <= xp_13_1 <= 1.72886905833481
 0 <= xp_14_0 <= 9.87925176191321
 0 <= xp_14_1 <= 6.58616784127547
 0 <= xp_15_0 <= 16.3007654071568
 0 <= xp_16_0 <= 14.0779337607263
 0 <= xp_16_1 <= 1.56421486230293
 0 <= xp_17_0 <= 27.4396354761895
 0 <= xp_17_1 <= 4.57738664968645
 0 <= xp_17_2 <= 6.41327819394689
 0 <= xp_17_3 <= 3.67178308852087
 0 <= xp_17_4 <= 1.83589154426043
 0 <= xp_17_5 <= 1.83589154426043
 0 <= xp_18_0 <= 22.4341259848593
 0 <= xp_18_1 <= 15.3457820361523
 0 <= xp_18_2 <= 6.01810812347036
 0 <= xp_19_0 <= 29.0038613044728
 0 <= xp_19_1 <= 6.35564100085041
 0 <= xp_19_2 <= 3.17782050042521
 0 <= xp_19_3 <= 4.76673075063781
 0 <= xp_20_0 <= 27.6866222532275
 0 <= xp_20_1 <= 4.51974945658998
 0 <= xp_20_2 <= 7.261244562016
 0 <= xp_20_3 <= 3.01316630439332
 0 <= xp_21_0 <= 23.1668563476669
 0 <= xp_21_1 <= 3.97639060968475
 0 <= xp_21_2 <= 2.65092707312317
 0 <= xp_21_3 <= 6.80845374741363
 0 <= xp_21_4 <= 1.32546353656158
 0 <= xp_21_5 <= 2.74149510542602
 0 <= xp_22_0 <= 21.5120844190415
 0 <= xp_22_1 <= 2.32161868105939
 0 <= xp_22_2 <= 2.74149510542602
 0 <= xp_22_3 <= 7.80460889191144
 0 <= xp_22_4 <= 3.48242802158909
 0 <= xp_22_5 <= 1.1608093405297
 0 <= xp_23_0 <= 25.4143888649973
 0 <= xp_23_1 <= 7.38473246754481
 0 <= xp_23_2 <= 1.1608093405297
 0 <= xp_23_3 <= 3.90230444595572
 0 <= xp_23_4 <= 1.1608093405297

End
